35
1376
2679 91
2682 88
2677 88
2681 90
2678 89
2678 88
2679 89
2680 90
2683 91
2677 90
2679 89
2680 90
2683 91
2677 89
2680 90
2681 90
2678 91
2679 91
2678 89
2682 88
2678 91
2677 89
2681 91
2679 90
2683 88
2682 89
2677 90
2681 88
2682 90
2679 91
2680 88
2683 89
2678 91
2683 90
2676 92
